certificates/rado_a10_c12_N27.cnf
c Rad2 upper bound instance: x1 + 10*x2 - x3 = 12, interval [1,27]
p cnf 27 106
1 2 9 0
-1 -2 -9 0
1 3 19 0
-1 -3 -19 0
2 10 0
-2 -10 0
2 3 20 0
-2 -3 -20 0
1 3 0
-1 -3 0
2 3 11 0
-2 -3 -11 0
3 21 0
-3 -21 0
1 2 4 0
-1 -2 -4 0
2 4 12 0
-2 -4 -12 0
3 4 22 0
-3 -4 -22 0
1 3 5 0
-1 -3 -5 0
2 5 13 0
-2 -5 -13 0
3 5 23 0
-3 -5 -23 0
1 4 6 0
-1 -4 -6 0
2 6 14 0
-2 -6 -14 0
3 6 24 0
-3 -6 -24 0
1 5 7 0
-1 -5 -7 0
2 7 15 0
-2 -7 -15 0
3 7 25 0
-3 -7 -25 0
1 6 8 0
-1 -6 -8 0
2 8 16 0
-2 -8 -16 0
3 8 26 0
-3 -8 -26 0
1 7 9 0
-1 -7 -9 0
2 9 17 0
-2 -9 -17 0
3 9 27 0
-3 -9 -27 0
1 8 10 0
-1 -8 -10 0
2 10 18 0
-2 -10 -18 0
1 9 11 0
-1 -9 -11 0
2 11 19 0
-2 -11 -19 0
1 10 12 0
-1 -10 -12 0
2 12 20 0
-2 -12 -20 0
1 11 13 0
-1 -11 -13 0
2 13 21 0
-2 -13 -21 0
1 12 14 0
-1 -12 -14 0
2 14 22 0
-2 -14 -22 0
1 13 15 0
-1 -13 -15 0
2 15 23 0
-2 -15 -23 0
1 14 16 0
-1 -14 -16 0
2 16 24 0
-2 -16 -24 0
1 15 17 0
-1 -15 -17 0
2 17 25 0
-2 -17 -25 0
1 16 18 0
-1 -16 -18 0
2 18 26 0
-2 -18 -26 0
1 17 19 0
-1 -17 -19 0
2 19 27 0
-2 -19 -27 0
1 18 20 0
-1 -18 -20 0
1 19 21 0
-1 -19 -21 0
1 20 22 0
-1 -20 -22 0
1 21 23 0
-1 -21 -23 0
1 22 24 0
-1 -22 -24 0
1 23 25 0
-1 -23 -25 0
1 24 26 0
-1 -24 -26 0
1 25 27 0
-1 -25 -27 0
