certificates/rado_a10_c12_N27.drat
-25 -27 0
d -25 -1 -27 0
7 9 25 0
-3 9 0
9 25 0
d 7 9 25 0
-27 0
3 -9 0
-3 0
1 0
21 0
9 0
0
